Bi bulk :a = 4.6126930, c = 11.9856214
 1.00000000000000
    123.803088000000      0.000000000000      0.000000000000
      0.000000000000      7.989418635717      0.000000000000
      0.000000000000      0.000000000000     11.985621400000
   Bi
      64
Direct
      0.000000000000      0.000000000000      0.000000000000  s  px py pz
      0.229806642626      0.000000000000      0.000000000000  s  px py pz
      0.459613285252      0.000000000000      0.000000000000  s  px py pz
      0.689419927878      0.000000000000      0.000000000000  s  px py pz
      0.037258303282      0.000000000000      0.000000000000  s  px py pz
      0.267064945908      0.000000000000      0.000000000000  s  px py pz
      0.496871588534      0.000000000000      0.000000000000  s  px py pz
      0.726678231160      0.000000000000      0.000000000000  s  px py pz
      0.074516606565      0.000000000000      0.000000000000  s  px py pz
      0.304323249191      0.000000000000      0.000000000000  s  px py pz
      0.534129891817      0.000000000000      0.000000000000  s  px py pz
      0.763936534443      0.000000000000      0.000000000000  s  px py pz
      0.111774909847      0.000000000000      0.000000000000  s  px py pz
      0.341581552473      0.000000000000      0.000000000000  s  px py pz
      0.571388195099      0.000000000000      0.000000000000  s  px py pz
      0.801194837725      0.000000000000      0.000000000000  s  px py pz
      0.018629151641      0.166666666667      0.135646658437  s  px py pz
      0.248435794267      0.166666666667      0.135646658437  s  px py pz
      0.478242436893      0.166666666667      0.135646658437  s  px py pz
      0.708049079519      0.166666666667      0.135646658437  s  px py pz
      0.055887454924      0.166666666667      0.135646658437  s  px py pz
      0.285694097550      0.166666666667      0.135646658437  s  px py pz
      0.515500740175      0.166666666667      0.135646658437  s  px py pz
      0.745307382801      0.166666666667      0.135646658437  s  px py pz
      0.093145758206      0.166666666667      0.135646658437  s  px py pz
      0.322952400832      0.166666666667      0.135646658437  s  px py pz
      0.552759043458      0.166666666667      0.135646658437  s  px py pz
      0.782565686084      0.166666666667      0.135646658437  s  px py pz
      0.130404061488      0.166666666667      0.135646658437  s  px py pz
      0.360210704114      0.166666666667      0.135646658437  s  px py pz
      0.590017346740      0.166666666667      0.135646658437  s  px py pz
      0.819823989366      0.166666666667      0.135646658437  s  px py pz
      0.018629151641      0.500000000000      0.000000000000  s  px py pz
      0.248435794267      0.500000000000      0.000000000000  s  px py pz
      0.478242436893      0.500000000000      0.000000000000  s  px py pz
      0.708049079519      0.500000000000      0.000000000000  s  px py pz
      0.055887454924      0.500000000000      0.000000000000  s  px py pz
      0.285694097550      0.500000000000      0.000000000000  s  px py pz
      0.515500740175      0.500000000000      0.000000000000  s  px py pz
      0.745307382801      0.500000000000      0.000000000000  s  px py pz
      0.093145758206      0.500000000000      0.000000000000  s  px py pz
      0.322952400832      0.500000000000      0.000000000000  s  px py pz
      0.552759043458      0.500000000000      0.000000000000  s  px py pz
      0.782565686084      0.500000000000      0.000000000000  s  px py pz
      0.130404061488      0.500000000000      0.000000000000  s  px py pz
      0.360210704114      0.500000000000      0.000000000000  s  px py pz
      0.590017346740      0.500000000000      0.000000000000  s  px py pz
      0.819823989366      0.500000000000      0.000000000000  s  px py pz
      0.000000000000      0.666666666667      0.135646658437  s  px py pz
      0.229806642626      0.666666666667      0.135646658437  s  px py pz
      0.459613285252      0.666666666667      0.135646658437  s  px py pz
      0.689419927878      0.666666666667      0.135646658437  s  px py pz
      0.037258303282      0.666666666667      0.135646658437  s  px py pz
      0.267064945908      0.666666666667      0.135646658437  s  px py pz
      0.496871588534      0.666666666667      0.135646658437  s  px py pz
      0.726678231160      0.666666666667      0.135646658437  s  px py pz
      0.074516606565      0.666666666667      0.135646658437  s  px py pz
      0.304323249191      0.666666666667      0.135646658437  s  px py pz
      0.534129891817      0.666666666667      0.135646658437  s  px py pz
      0.763936534443      0.666666666667      0.135646658437  s  px py pz
      0.111774909847      0.666666666667      0.135646658437  s  px py pz
      0.341581552473      0.666666666667      0.135646658437  s  px py pz
      0.571388195099      0.666666666667      0.135646658437  s  px py pz
      0.801194837725      0.666666666667      0.135646658437  s  px py pz
