Bi bulk :a = 4.6126930, c = 11.9856214
 1.00000000000000
     28.450772000000      0.000000000000      0.000000000000
      0.000000000000      7.989418635717      0.000000000000
      0.000000000000      0.000000000000     11.985621400000
   Bi
      16
Direct
      0.000000000000      0.000000000000      0.000000000000  s  px py pz
      0.162128922196      0.000000000000      0.000000000000  s  px py pz 
      0.324257844392      0.000000000000      0.000000000000  s  px py pz
      0.486386766588      0.000000000000      0.000000000000  s  px py pz
      0.081064461098      0.166666666667      0.135646658437  s  px py pz
      0.243193383294      0.166666666667      0.135646658437  s  px py pz
      0.405322305490      0.166666666667      0.135646658437  s  px py pz
      0.567451227685      0.166666666667      0.135646658437  s  px py pz
      0.081064461098      0.500000000000      0.000000000000  s  px py pz
      0.243193383294      0.500000000000      0.000000000000  s  px py pz
      0.405322305490      0.500000000000      0.000000000000  s  px py pz
      0.567451227685      0.500000000000      0.000000000000  s  px py pz
      0.000000000000      0.666666666667      0.135646658437  s  px py pz 
      0.162128922196      0.666666666667      0.135646658437  s  px py pz
      0.324257844392      0.666666666667      0.135646658437  s  px py pz
      0.486386766588      0.666666666667      0.135646658437  s  px py pz
