 # Graphene with large SOC and sublattice potential (kane-mele-hubbard)
   1.00000000000000
     2.45                  0.0000000000000000    0.
     1.2250000000000000    2.1217622392718746    0.
     0.0000000000000000    0.0000000000000000   15.
   C
   2
 Direct coordinate
  0.1666666666666667  0.1666666666666667   0.0   s  px  py  pz local.pot 1 1 1 1
 -0.1666666666666666 -0.1666666666666667   0.0   s  px  py  pz local.pot -1 -1 -1 -1
# 0.1666666666666667  0.1666666666666667   0.0   s  px  py  pz 
#-0.1666666666666666 -0.1666666666666667   0.0   s  px  py  pz 
