 # Graphene with large SOC and sublattice potential (kane-mele-hubbard)
   1.00000000000000
      9.800000000000      0.000000000000      0.000000000000
      4.900000000000      8.487048957087      0.000000000000
      0.000000000000      0.000000000000     15.000000000000
   A B
      16      16
Direct
      0.041666666667      0.041666666667      0.000000000000  cp1  local.pot 1
      0.291666666667      0.041666666667      0.000000000000  cp1  local.pot 1
      0.541666666667      0.041666666667      0.000000000000  cp1  local.pot 1
      0.791666666667      0.041666666667      0.000000000000  cp1  local.pot 1
      0.041666666667      0.291666666667      0.000000000000  cp1  local.pot 1
      0.291666666667      0.291666666667      0.000000000000  cp1  local.pot 1
      0.541666666667      0.291666666667      0.000000000000  cp1  local.pot 1
      0.791666666667      0.291666666667      0.000000000000  cp1  local.pot 1
      0.041666666667      0.541666666667      0.000000000000  cp1  local.pot 1
      0.291666666667      0.541666666667      0.000000000000  cp1  local.pot 1
      0.541666666667      0.541666666667      0.000000000000  cp1  local.pot 1
      0.791666666667      0.541666666667      0.000000000000  cp1  local.pot 1
      0.041666666667      0.791666666667      0.000000000000  cp1  local.pot 1
      0.291666666667      0.791666666667      0.000000000000  cp1  local.pot 1
      0.541666666667      0.791666666667      0.000000000000  cp1  local.pot 1
      0.791666666667      0.791666666667      0.000000000000  cp1  local.pot 1
     -0.041666666667     -0.041666666667      0.000000000000  cp1  local.pot 1
      0.208333333333     -0.041666666667      0.000000000000  cp1  local.pot 1
      0.458333333333     -0.041666666667      0.000000000000  cp1  local.pot 1
      0.708333333333     -0.041666666667      0.000000000000  cp1  local.pot 1
     -0.041666666667      0.208333333333      0.000000000000  cp1  local.pot 1
      0.208333333333      0.208333333333      0.000000000000  cp1  local.pot 1
      0.458333333333      0.208333333333      0.000000000000  cp1  local.pot 1
      0.708333333333      0.208333333333      0.000000000000  cp1  local.pot 1
     -0.041666666667      0.458333333333      0.000000000000  cp1  local.pot 1
      0.208333333333      0.458333333333      0.000000000000  cp1  local.pot 1
      0.458333333333      0.458333333333      0.000000000000  cp1  local.pot 1
      0.708333333333      0.458333333333      0.000000000000  cp1  local.pot 1
     -0.041666666667      0.708333333333      0.000000000000  cp1  local.pot 1
      0.208333333333      0.708333333333      0.000000000000  cp1  local.pot 1
      0.458333333333      0.708333333333      0.000000000000  cp1  local.pot 1
      0.708333333333      0.708333333333      0.000000000000  cp1  local.pot 1
