Bi bulk :a = 4.6126930, c = 11.9856214
 1.00000000000000     
  4.6126930 0                       0
  0 7.98941863571730730967 0
  0         0                      11.9856214
   Bi
     4
Direct
  0                    0                   0                          s px py pz
  0.5          .16666666666666666666       0.1356466584369167         s px py pz
  0.5                  0.5                 0                          s px py pz
  0.           .66666666666666666666       0.1356466584369167         s px py pz
