# Graphene
   1.00000000000000
    157.000000000000      0.000000000000      0.000000000000
      0.000000000000      4.243524478544      0.000000000000
      0.000000000000      0.000000000000     15.000000000000
   C
     240
Direct
      0.000000000000      0.000000000000      0.000000000000  s  px py pz
      0.015605096355      0.000000000000      0.000000000000  s  px py pz
      0.031210192711      0.000000000000      0.000000000000  s  px py pz
      0.046815287322      0.000000000000      0.000000000000  s  px py pz
      0.062420385421      0.000000000000      0.000000000000  s  px py pz
      0.078025480032      0.000000000000      0.000000000000  s  px py pz
      0.093630574644      0.000000000000      0.000000000000  s  px py pz
      0.109235669255      0.000000000000      0.000000000000  s  px py pz
      0.124840770842      0.000000000000      0.000000000000  s  px py pz
      0.140445865453      0.000000000000      0.000000000000  s  px py pz
      0.156050960065      0.000000000000      0.000000000000  s  px py pz
      0.171656054676      0.000000000000      0.000000000000  s  px py pz
      0.187261149287      0.000000000000      0.000000000000  s  px py pz
      0.202866243898      0.000000000000      0.000000000000  s  px py pz
      0.218471338510      0.000000000000      0.000000000000  s  px py pz
      0.234076433121      0.000000000000      0.000000000000  s  px py pz
      0.249681541684      0.000000000000      0.000000000000  s  px py pz
      0.265286622344      0.000000000000      0.000000000000  s  px py pz
      0.280891730907      0.000000000000      0.000000000000  s  px py pz
      0.296496811566      0.000000000000      0.000000000000  s  px py pz
      0.312101920129      0.000000000000      0.000000000000  s  px py pz
      0.327707000789      0.000000000000      0.000000000000  s  px py pz
      0.343312109352      0.000000000000      0.000000000000  s  px py pz
      0.358917190011      0.000000000000      0.000000000000  s  px py pz
      0.374522298574      0.000000000000      0.000000000000  s  px py pz
      0.390127379234      0.000000000000      0.000000000000  s  px py pz
      0.405732487797      0.000000000000      0.000000000000  s  px py pz
      0.421337568456      0.000000000000      0.000000000000  s  px py pz
      0.436942677020      0.000000000000      0.000000000000  s  px py pz
      0.452547757679      0.000000000000      0.000000000000  s  px py pz
      0.468152866242      0.000000000000      0.000000000000  s  px py pz
      0.483757946901      0.000000000000      0.000000000000  s  px py pz
      0.499363083369      0.000000000000      0.000000000000  s  px py pz
      0.514968164028      0.000000000000      0.000000000000  s  px py pz
      0.530573244687      0.000000000000      0.000000000000  s  px py pz
      0.546178325346      0.000000000000      0.000000000000  s  px py pz
      0.561783461814      0.000000000000      0.000000000000  s  px py pz
      0.577388542473      0.000000000000      0.000000000000  s  px py pz
      0.592993623132      0.000000000000      0.000000000000  s  px py pz
      0.608598703791      0.000000000000      0.000000000000  s  px py pz
      0.624203840259      0.000000000000      0.000000000000  s  px py pz
      0.639808920918      0.000000000000      0.000000000000  s  px py pz
      0.655414001577      0.000000000000      0.000000000000  s  px py pz
      0.671019082236      0.000000000000      0.000000000000  s  px py pz
      0.686624218704      0.000000000000      0.000000000000  s  px py pz
      0.702229299363      0.000000000000      0.000000000000  s  px py pz
      0.717834380022      0.000000000000      0.000000000000  s  px py pz
      0.733439516490      0.000000000000      0.000000000000  s  px py pz
      0.749044597149      0.000000000000      0.000000000000  s  px py pz
      0.764649677808      0.000000000000      0.000000000000  s  px py pz
      0.780254758467      0.000000000000      0.000000000000  s  px py pz
      0.795859894935      0.000000000000      0.000000000000  s  px py pz
      0.811464975594      0.000000000000      0.000000000000  s  px py pz
      0.827070056253      0.000000000000      0.000000000000  s  px py pz
      0.842675136912      0.000000000000      0.000000000000  s  px py pz
      0.858280273380      0.000000000000      0.000000000000  s  px py pz
      0.873885354039      0.000000000000      0.000000000000  s  px py pz
      0.889490434698      0.000000000000      0.000000000000  s  px py pz
      0.905095515357      0.000000000000      0.000000000000  s  px py pz
      0.920700651825      0.000000000000      0.000000000000  s  px py pz
      0.007802547771      0.166666666667      0.000000000000  s  px py pz
      0.023407644126      0.166666666667      0.000000000000  s  px py pz
      0.039012740481      0.166666666667      0.000000000000  s  px py pz
      0.054617835093      0.166666666667      0.000000000000  s  px py pz
      0.070222933192      0.166666666667      0.000000000000  s  px py pz
      0.085828027803      0.166666666667      0.000000000000  s  px py pz
      0.101433122414      0.166666666667      0.000000000000  s  px py pz
      0.117038217026      0.166666666667      0.000000000000  s  px py pz
      0.132643318613      0.166666666667      0.000000000000  s  px py pz
      0.148248413224      0.166666666667      0.000000000000  s  px py pz
      0.163853507835      0.166666666667      0.000000000000  s  px py pz
      0.179458602447      0.166666666667      0.000000000000  s  px py pz
      0.195063697058      0.166666666667      0.000000000000  s  px py pz
      0.210668791669      0.166666666667      0.000000000000  s  px py pz
      0.226273886280      0.166666666667      0.000000000000  s  px py pz
      0.241878980892      0.166666666667      0.000000000000  s  px py pz
      0.257484089455      0.166666666667      0.000000000000  s  px py pz
      0.273089170114      0.166666666667      0.000000000000  s  px py pz
      0.288694278678      0.166666666667      0.000000000000  s  px py pz
      0.304299359337      0.166666666667      0.000000000000  s  px py pz
      0.319904467900      0.166666666667      0.000000000000  s  px py pz
      0.335509548559      0.166666666667      0.000000000000  s  px py pz
      0.351114657123      0.166666666667      0.000000000000  s  px py pz
      0.366719737782      0.166666666667      0.000000000000  s  px py pz
      0.382324846345      0.166666666667      0.000000000000  s  px py pz
      0.397929927004      0.166666666667      0.000000000000  s  px py pz
      0.413535035568      0.166666666667      0.000000000000  s  px py pz
      0.429140116227      0.166666666667      0.000000000000  s  px py pz
      0.444745224790      0.166666666667      0.000000000000  s  px py pz
      0.460350305449      0.166666666667      0.000000000000  s  px py pz
      0.475955414013      0.166666666667      0.000000000000  s  px py pz
      0.491560494672      0.166666666667      0.000000000000  s  px py pz
      0.507165631139      0.166666666667      0.000000000000  s  px py pz
      0.522770711799      0.166666666667      0.000000000000  s  px py pz
      0.538375792458      0.166666666667      0.000000000000  s  px py pz
      0.553980873117      0.166666666667      0.000000000000  s  px py pz
      0.569586009584      0.166666666667      0.000000000000  s  px py pz
      0.585191090244      0.166666666667      0.000000000000  s  px py pz
      0.600796170903      0.166666666667      0.000000000000  s  px py pz
      0.616401251562      0.166666666667      0.000000000000  s  px py pz
      0.632006388029      0.166666666667      0.000000000000  s  px py pz
      0.647611468689      0.166666666667      0.000000000000  s  px py pz
      0.663216549348      0.166666666667      0.000000000000  s  px py pz
      0.678821630007      0.166666666667      0.000000000000  s  px py pz
      0.694426766475      0.166666666667      0.000000000000  s  px py pz
      0.710031847134      0.166666666667      0.000000000000  s  px py pz
      0.725636927793      0.166666666667      0.000000000000  s  px py pz
      0.741242064260      0.166666666667      0.000000000000  s  px py pz
      0.756847144920      0.166666666667      0.000000000000  s  px py pz
      0.772452225579      0.166666666667      0.000000000000  s  px py pz
      0.788057306238      0.166666666667      0.000000000000  s  px py pz
      0.803662442705      0.166666666667      0.000000000000  s  px py pz
      0.819267523365      0.166666666667      0.000000000000  s  px py pz
      0.834872604024      0.166666666667      0.000000000000  s  px py pz
      0.850477684683      0.166666666667      0.000000000000  s  px py pz
      0.866082821150      0.166666666667      0.000000000000  s  px py pz
      0.881687901810      0.166666666667      0.000000000000  s  px py pz
      0.897292982469      0.166666666667      0.000000000000  s  px py pz
      0.912898063128      0.166666666667      0.000000000000  s  px py pz
      0.928503199596      0.166666666667      0.000000000000  s  px py pz
      0.007802547771      0.500000000000      0.000000000000  s  px py pz
      0.023407644126      0.500000000000      0.000000000000  s  px py pz
      0.039012740481      0.500000000000      0.000000000000  s  px py pz
      0.054617835093      0.500000000000      0.000000000000  s  px py pz
      0.070222933192      0.500000000000      0.000000000000  s  px py pz
      0.085828027803      0.500000000000      0.000000000000  s  px py pz
      0.101433122414      0.500000000000      0.000000000000  s  px py pz
      0.117038217026      0.500000000000      0.000000000000  s  px py pz
      0.132643318613      0.500000000000      0.000000000000  s  px py pz
      0.148248413224      0.500000000000      0.000000000000  s  px py pz
      0.163853507835      0.500000000000      0.000000000000  s  px py pz
      0.179458602447      0.500000000000      0.000000000000  s  px py pz
      0.195063697058      0.500000000000      0.000000000000  s  px py pz
      0.210668791669      0.500000000000      0.000000000000  s  px py pz
      0.226273886280      0.500000000000      0.000000000000  s  px py pz
      0.241878980892      0.500000000000      0.000000000000  s  px py pz
      0.257484089455      0.500000000000      0.000000000000  s  px py pz
      0.273089170114      0.500000000000      0.000000000000  s  px py pz
      0.288694278678      0.500000000000      0.000000000000  s  px py pz
      0.304299359337      0.500000000000      0.000000000000  s  px py pz
      0.319904467900      0.500000000000      0.000000000000  s  px py pz
      0.335509548559      0.500000000000      0.000000000000  s  px py pz
      0.351114657123      0.500000000000      0.000000000000  s  px py pz
      0.366719737782      0.500000000000      0.000000000000  s  px py pz
      0.382324846345      0.500000000000      0.000000000000  s  px py pz
      0.397929927004      0.500000000000      0.000000000000  s  px py pz
      0.413535035568      0.500000000000      0.000000000000  s  px py pz
      0.429140116227      0.500000000000      0.000000000000  s  px py pz
      0.444745224790      0.500000000000      0.000000000000  s  px py pz
      0.460350305449      0.500000000000      0.000000000000  s  px py pz
      0.475955414013      0.500000000000      0.000000000000  s  px py pz
      0.491560494672      0.500000000000      0.000000000000  s  px py pz
      0.507165631139      0.500000000000      0.000000000000  s  px py pz
      0.522770711799      0.500000000000      0.000000000000  s  px py pz
      0.538375792458      0.500000000000      0.000000000000  s  px py pz
      0.553980873117      0.500000000000      0.000000000000  s  px py pz
      0.569586009584      0.500000000000      0.000000000000  s  px py pz
      0.585191090244      0.500000000000      0.000000000000  s  px py pz
      0.600796170903      0.500000000000      0.000000000000  s  px py pz
      0.616401251562      0.500000000000      0.000000000000  s  px py pz
      0.632006388029      0.500000000000      0.000000000000  s  px py pz
      0.647611468689      0.500000000000      0.000000000000  s  px py pz
      0.663216549348      0.500000000000      0.000000000000  s  px py pz
      0.678821630007      0.500000000000      0.000000000000  s  px py pz
      0.694426766475      0.500000000000      0.000000000000  s  px py pz
      0.710031847134      0.500000000000      0.000000000000  s  px py pz
      0.725636927793      0.500000000000      0.000000000000  s  px py pz
      0.741242064260      0.500000000000      0.000000000000  s  px py pz
      0.756847144920      0.500000000000      0.000000000000  s  px py pz
      0.772452225579      0.500000000000      0.000000000000  s  px py pz
      0.788057306238      0.500000000000      0.000000000000  s  px py pz
      0.803662442705      0.500000000000      0.000000000000  s  px py pz
      0.819267523365      0.500000000000      0.000000000000  s  px py pz
      0.834872604024      0.500000000000      0.000000000000  s  px py pz
      0.850477684683      0.500000000000      0.000000000000  s  px py pz
      0.866082821150      0.500000000000      0.000000000000  s  px py pz
      0.881687901810      0.500000000000      0.000000000000  s  px py pz
      0.897292982469      0.500000000000      0.000000000000  s  px py pz
      0.912898063128      0.500000000000      0.000000000000  s  px py pz
      0.928503199596      0.500000000000      0.000000000000  s  px py pz
      0.000000000000      0.666666666667      0.000000000000  s  px py pz
      0.015605096355      0.666666666667      0.000000000000  s  px py pz
      0.031210192711      0.666666666667      0.000000000000  s  px py pz
      0.046815287322      0.666666666667      0.000000000000  s  px py pz
      0.062420385421      0.666666666667      0.000000000000  s  px py pz
      0.078025480032      0.666666666667      0.000000000000  s  px py pz
      0.093630574644      0.666666666667      0.000000000000  s  px py pz
      0.109235669255      0.666666666667      0.000000000000  s  px py pz
      0.124840770842      0.666666666667      0.000000000000  s  px py pz
      0.140445865453      0.666666666667      0.000000000000  s  px py pz
      0.156050960065      0.666666666667      0.000000000000  s  px py pz
      0.171656054676      0.666666666667      0.000000000000  s  px py pz
      0.187261149287      0.666666666667      0.000000000000  s  px py pz
      0.202866243898      0.666666666667      0.000000000000  s  px py pz
      0.218471338510      0.666666666667      0.000000000000  s  px py pz
      0.234076433121      0.666666666667      0.000000000000  s  px py pz
      0.249681541684      0.666666666667      0.000000000000  s  px py pz
      0.265286622344      0.666666666667      0.000000000000  s  px py pz
      0.280891730907      0.666666666667      0.000000000000  s  px py pz
      0.296496811566      0.666666666667      0.000000000000  s  px py pz
      0.312101920129      0.666666666667      0.000000000000  s  px py pz
      0.327707000789      0.666666666667      0.000000000000  s  px py pz
      0.343312109352      0.666666666667      0.000000000000  s  px py pz
      0.358917190011      0.666666666667      0.000000000000  s  px py pz
      0.374522298574      0.666666666667      0.000000000000  s  px py pz
      0.390127379234      0.666666666667      0.000000000000  s  px py pz
      0.405732487797      0.666666666667      0.000000000000  s  px py pz
      0.421337568456      0.666666666667      0.000000000000  s  px py pz
      0.436942677020      0.666666666667      0.000000000000  s  px py pz
      0.452547757679      0.666666666667      0.000000000000  s  px py pz
      0.468152866242      0.666666666667      0.000000000000  s  px py pz
      0.483757946901      0.666666666667      0.000000000000  s  px py pz
      0.499363083369      0.666666666667      0.000000000000  s  px py pz
      0.514968164028      0.666666666667      0.000000000000  s  px py pz
      0.530573244687      0.666666666667      0.000000000000  s  px py pz
      0.546178325346      0.666666666667      0.000000000000  s  px py pz
      0.561783461814      0.666666666667      0.000000000000  s  px py pz
      0.577388542473      0.666666666667      0.000000000000  s  px py pz
      0.592993623132      0.666666666667      0.000000000000  s  px py pz
      0.608598703791      0.666666666667      0.000000000000  s  px py pz
      0.624203840259      0.666666666667      0.000000000000  s  px py pz
      0.639808920918      0.666666666667      0.000000000000  s  px py pz
      0.655414001577      0.666666666667      0.000000000000  s  px py pz
      0.671019082236      0.666666666667      0.000000000000  s  px py pz
      0.686624218704      0.666666666667      0.000000000000  s  px py pz
      0.702229299363      0.666666666667      0.000000000000  s  px py pz
      0.717834380022      0.666666666667      0.000000000000  s  px py pz
      0.733439516490      0.666666666667      0.000000000000  s  px py pz
      0.749044597149      0.666666666667      0.000000000000  s  px py pz
      0.764649677808      0.666666666667      0.000000000000  s  px py pz
      0.780254758467      0.666666666667      0.000000000000  s  px py pz
      0.795859894935      0.666666666667      0.000000000000  s  px py pz
      0.811464975594      0.666666666667      0.000000000000  s  px py pz
      0.827070056253      0.666666666667      0.000000000000  s  px py pz
      0.842675136912      0.666666666667      0.000000000000  s  px py pz
      0.858280273380      0.666666666667      0.000000000000  s  px py pz
      0.873885354039      0.666666666667      0.000000000000  s  px py pz
      0.889490434698      0.666666666667      0.000000000000  s  px py pz
      0.905095515357      0.666666666667      0.000000000000  s  px py pz
      0.920700651825      0.666666666667      0.000000000000  s  px py pz
