# Graphene 
   1.00000000000000
     2.45                  0.0000000000000000    0.0000000000000000
     0.00                  4.24352447854374936   0.0000000000000000
     0.0000000000000000    0.0000000000000000   15.
   C
   4
Direct coordinate
  0 0 0   s px py pz
  0.5 0.16666666666666666666 0   s px py pz
  0.5 0.5 0   s px py pz
  0.0 0.66666666666666666666 0   s px py pz
