# Graphene
   1.00000000000000
      2.450000000000      0.000000000000      0.000000000000
      0.000000000000     52.435244785437      0.000000000000
      0.000000000000      0.000000000000     15.000000000000
   C
      40
Direct
      0.000000000000      0.000000000000      0.000000000000  s  px py pz
      0.000000000000      0.080928859189      0.000000000000  s  px py pz
      0.000000000000      0.161857718378      0.000000000000  s  px py pz
      0.000000000000      0.242786583596      0.000000000000  s  px py pz
      0.000000000000      0.323715436756      0.000000000000  s  px py pz
      0.000000000000      0.404644289915      0.000000000000  s  px py pz
      0.000000000000      0.485573167193      0.000000000000  s  px py pz
      0.000000000000      0.566501996233      0.000000000000  s  px py pz
      0.000000000000      0.647430873511      0.000000000000  s  px py pz
      0.000000000000      0.728359702552      0.000000000000  s  px py pz
      0.500000000000      0.013488142997      0.000000000000  s  px py pz
      0.500000000000      0.094417002186      0.000000000000  s  px py pz
      0.500000000000      0.175345861375      0.000000000000  s  px py pz
      0.500000000000      0.256274726594      0.000000000000  s  px py pz
      0.500000000000      0.337203579753      0.000000000000  s  px py pz
      0.500000000000      0.418132432912      0.000000000000  s  px py pz
      0.500000000000      0.499061310190      0.000000000000  s  px py pz
      0.500000000000      0.579990139231      0.000000000000  s  px py pz
      0.500000000000      0.660919016509      0.000000000000  s  px py pz
      0.500000000000      0.741847845549      0.000000000000  s  px py pz
      0.500000000000      0.040464428991      0.000000000000  s  px py pz
      0.500000000000      0.121393288180      0.000000000000  s  px py pz
      0.500000000000      0.202322147369      0.000000000000  s  px py pz
      0.500000000000      0.283251012588      0.000000000000  s  px py pz
      0.500000000000      0.364179865747      0.000000000000  s  px py pz
      0.500000000000      0.445108718906      0.000000000000  s  px py pz
      0.500000000000      0.526037596184      0.000000000000  s  px py pz
      0.500000000000      0.606966425225      0.000000000000  s  px py pz
      0.500000000000      0.687895302503      0.000000000000  s  px py pz
      0.500000000000      0.768824131543      0.000000000000  s  px py pz
      0.000000000000      0.053952571989      0.000000000000  s  px py pz
      0.000000000000      0.134881431178      0.000000000000  s  px py pz
      0.000000000000      0.215810290366      0.000000000000  s  px py pz
      0.000000000000      0.296739155585      0.000000000000  s  px py pz
      0.000000000000      0.377668008744      0.000000000000  s  px py pz
      0.000000000000      0.458596861904      0.000000000000  s  px py pz
      0.000000000000      0.539525739182      0.000000000000  s  px py pz
      0.000000000000      0.620454568222      0.000000000000  s  px py pz
      0.000000000000      0.701383445500      0.000000000000  s  px py pz
      0.000000000000      0.782312274541      0.000000000000  s  px py pz
