# Graphene
   1.00000000000000
    108.000000000000      0.000000000000      0.000000000000
      0.000000000000      4.243524478544      0.000000000000
      0.000000000000      0.000000000000     15.000000000000
   C
     160
Direct
      0.000000000000      0.000000000000      0.000000000000  s  px py pz
      0.022685185523      0.000000000000      0.000000000000  s  px py pz
      0.045370371046      0.000000000000      0.000000000000  s  px py pz
      0.068055558260      0.000000000000      0.000000000000  s  px py pz
      0.090740742093      0.000000000000      0.000000000000  s  px py pz
      0.113425925926      0.000000000000      0.000000000000  s  px py pz
      0.136111116520      0.000000000000      0.000000000000  s  px py pz
      0.158796293592      0.000000000000      0.000000000000  s  px py pz
      0.181481484186      0.000000000000      0.000000000000  s  px py pz
      0.204166661258      0.000000000000      0.000000000000  s  px py pz
      0.226851851852      0.000000000000      0.000000000000  s  px py pz
      0.249537042446      0.000000000000      0.000000000000  s  px py pz
      0.272222233039      0.000000000000      0.000000000000  s  px py pz
      0.294907396590      0.000000000000      0.000000000000  s  px py pz
      0.317592587184      0.000000000000      0.000000000000  s  px py pz
      0.340277777778      0.000000000000      0.000000000000  s  px py pz
      0.362962968372      0.000000000000      0.000000000000  s  px py pz
      0.385648158965      0.000000000000      0.000000000000  s  px py pz
      0.408333322516      0.000000000000      0.000000000000  s  px py pz
      0.431018513110      0.000000000000      0.000000000000  s  px py pz
      0.453703703704      0.000000000000      0.000000000000  s  px py pz
      0.476388867255      0.000000000000      0.000000000000  s  px py pz
      0.499074084891      0.000000000000      0.000000000000  s  px py pz
      0.521759248442      0.000000000000      0.000000000000  s  px py pz
      0.544444466079      0.000000000000      0.000000000000  s  px py pz
      0.567129629630      0.000000000000      0.000000000000  s  px py pz
      0.589814793181      0.000000000000      0.000000000000  s  px py pz
      0.612500010817      0.000000000000      0.000000000000  s  px py pz
      0.635185174368      0.000000000000      0.000000000000  s  px py pz
      0.657870392005      0.000000000000      0.000000000000  s  px py pz
      0.680555555556      0.000000000000      0.000000000000  s  px py pz
      0.703240719106      0.000000000000      0.000000000000  s  px py pz
      0.725925936743      0.000000000000      0.000000000000  s  px py pz
      0.748611100294      0.000000000000      0.000000000000  s  px py pz
      0.771296317931      0.000000000000      0.000000000000  s  px py pz
      0.793981481481      0.000000000000      0.000000000000  s  px py pz
      0.816666645032      0.000000000000      0.000000000000  s  px py pz
      0.839351862669      0.000000000000      0.000000000000  s  px py pz
      0.862037026220      0.000000000000      0.000000000000  s  px py pz
      0.884722243857      0.000000000000      0.000000000000  s  px py pz
      0.011342592593      0.166666666667      0.000000000000  s  px py pz
      0.034027778116      0.166666666667      0.000000000000  s  px py pz
      0.056712963639      0.166666666667      0.000000000000  s  px py pz
      0.079398150852      0.166666666667      0.000000000000  s  px py pz
      0.102083334685      0.166666666667      0.000000000000  s  px py pz
      0.124768518519      0.166666666667      0.000000000000  s  px py pz
      0.147453709112      0.166666666667      0.000000000000  s  px py pz
      0.170138886185      0.166666666667      0.000000000000  s  px py pz
      0.192824076778      0.166666666667      0.000000000000  s  px py pz
      0.215509253851      0.166666666667      0.000000000000  s  px py pz
      0.238194444444      0.166666666667      0.000000000000  s  px py pz
      0.260879635038      0.166666666667      0.000000000000  s  px py pz
      0.283564825632      0.166666666667      0.000000000000  s  px py pz
      0.306249989183      0.166666666667      0.000000000000  s  px py pz
      0.328935179777      0.166666666667      0.000000000000  s  px py pz
      0.351620370370      0.166666666667      0.000000000000  s  px py pz
      0.374305560964      0.166666666667      0.000000000000  s  px py pz
      0.396990751558      0.166666666667      0.000000000000  s  px py pz
      0.419675915109      0.166666666667      0.000000000000  s  px py pz
      0.442361105703      0.166666666667      0.000000000000  s  px py pz
      0.465046296296      0.166666666667      0.000000000000  s  px py pz
      0.487731459847      0.166666666667      0.000000000000  s  px py pz
      0.510416677484      0.166666666667      0.000000000000  s  px py pz
      0.533101841035      0.166666666667      0.000000000000  s  px py pz
      0.555787058671      0.166666666667      0.000000000000  s  px py pz
      0.578472222222      0.166666666667      0.000000000000  s  px py pz
      0.601157385773      0.166666666667      0.000000000000  s  px py pz
      0.623842603410      0.166666666667      0.000000000000  s  px py pz
      0.646527766961      0.166666666667      0.000000000000  s  px py pz
      0.669212984597      0.166666666667      0.000000000000  s  px py pz
      0.691898148148      0.166666666667      0.000000000000  s  px py pz
      0.714583311699      0.166666666667      0.000000000000  s  px py pz
      0.737268529336      0.166666666667      0.000000000000  s  px py pz
      0.759953692887      0.166666666667      0.000000000000  s  px py pz
      0.782638910523      0.166666666667      0.000000000000  s  px py pz
      0.805324074074      0.166666666667      0.000000000000  s  px py pz
      0.828009237625      0.166666666667      0.000000000000  s  px py pz
      0.850694455262      0.166666666667      0.000000000000  s  px py pz
      0.873379618812      0.166666666667      0.000000000000  s  px py pz
      0.896064836449      0.166666666667      0.000000000000  s  px py pz
      0.011342592593      0.500000000000      0.000000000000  s  px py pz
      0.034027778116      0.500000000000      0.000000000000  s  px py pz
      0.056712963639      0.500000000000      0.000000000000  s  px py pz
      0.079398150852      0.500000000000      0.000000000000  s  px py pz
      0.102083334685      0.500000000000      0.000000000000  s  px py pz
      0.124768518519      0.500000000000      0.000000000000  s  px py pz
      0.147453709112      0.500000000000      0.000000000000  s  px py pz
      0.170138886185      0.500000000000      0.000000000000  s  px py pz
      0.192824076778      0.500000000000      0.000000000000  s  px py pz
      0.215509253851      0.500000000000      0.000000000000  s  px py pz
      0.238194444444      0.500000000000      0.000000000000  s  px py pz
      0.260879635038      0.500000000000      0.000000000000  s  px py pz
      0.283564825632      0.500000000000      0.000000000000  s  px py pz
      0.306249989183      0.500000000000      0.000000000000  s  px py pz
      0.328935179777      0.500000000000      0.000000000000  s  px py pz
      0.351620370370      0.500000000000      0.000000000000  s  px py pz
      0.374305560964      0.500000000000      0.000000000000  s  px py pz
      0.396990751558      0.500000000000      0.000000000000  s  px py pz
      0.419675915109      0.500000000000      0.000000000000  s  px py pz
      0.442361105703      0.500000000000      0.000000000000  s  px py pz
      0.465046296296      0.500000000000      0.000000000000  s  px py pz
      0.487731459847      0.500000000000      0.000000000000  s  px py pz
      0.510416677484      0.500000000000      0.000000000000  s  px py pz
      0.533101841035      0.500000000000      0.000000000000  s  px py pz
      0.555787058671      0.500000000000      0.000000000000  s  px py pz
      0.578472222222      0.500000000000      0.000000000000  s  px py pz
      0.601157385773      0.500000000000      0.000000000000  s  px py pz
      0.623842603410      0.500000000000      0.000000000000  s  px py pz
      0.646527766961      0.500000000000      0.000000000000  s  px py pz
      0.669212984597      0.500000000000      0.000000000000  s  px py pz
      0.691898148148      0.500000000000      0.000000000000  s  px py pz
      0.714583311699      0.500000000000      0.000000000000  s  px py pz
      0.737268529336      0.500000000000      0.000000000000  s  px py pz
      0.759953692887      0.500000000000      0.000000000000  s  px py pz
      0.782638910523      0.500000000000      0.000000000000  s  px py pz
      0.805324074074      0.500000000000      0.000000000000  s  px py pz
      0.828009237625      0.500000000000      0.000000000000  s  px py pz
      0.850694455262      0.500000000000      0.000000000000  s  px py pz
      0.873379618812      0.500000000000      0.000000000000  s  px py pz
      0.896064836449      0.500000000000      0.000000000000  s  px py pz
      0.000000000000      0.666666666667      0.000000000000  s  px py pz
      0.022685185523      0.666666666667      0.000000000000  s  px py pz
      0.045370371046      0.666666666667      0.000000000000  s  px py pz
      0.068055558260      0.666666666667      0.000000000000  s  px py pz
      0.090740742093      0.666666666667      0.000000000000  s  px py pz
      0.113425925926      0.666666666667      0.000000000000  s  px py pz
      0.136111116520      0.666666666667      0.000000000000  s  px py pz
      0.158796293592      0.666666666667      0.000000000000  s  px py pz
      0.181481484186      0.666666666667      0.000000000000  s  px py pz
      0.204166661258      0.666666666667      0.000000000000  s  px py pz
      0.226851851852      0.666666666667      0.000000000000  s  px py pz
      0.249537042446      0.666666666667      0.000000000000  s  px py pz
      0.272222233039      0.666666666667      0.000000000000  s  px py pz
      0.294907396590      0.666666666667      0.000000000000  s  px py pz
      0.317592587184      0.666666666667      0.000000000000  s  px py pz
      0.340277777778      0.666666666667      0.000000000000  s  px py pz
      0.362962968372      0.666666666667      0.000000000000  s  px py pz
      0.385648158965      0.666666666667      0.000000000000  s  px py pz
      0.408333322516      0.666666666667      0.000000000000  s  px py pz
      0.431018513110      0.666666666667      0.000000000000  s  px py pz
      0.453703703704      0.666666666667      0.000000000000  s  px py pz
      0.476388867255      0.666666666667      0.000000000000  s  px py pz
      0.499074084891      0.666666666667      0.000000000000  s  px py pz
      0.521759248442      0.666666666667      0.000000000000  s  px py pz
      0.544444466079      0.666666666667      0.000000000000  s  px py pz
      0.567129629630      0.666666666667      0.000000000000  s  px py pz
      0.589814793181      0.666666666667      0.000000000000  s  px py pz
      0.612500010817      0.666666666667      0.000000000000  s  px py pz
      0.635185174368      0.666666666667      0.000000000000  s  px py pz
      0.657870392005      0.666666666667      0.000000000000  s  px py pz
      0.680555555556      0.666666666667      0.000000000000  s  px py pz
      0.703240719106      0.666666666667      0.000000000000  s  px py pz
      0.725925936743      0.666666666667      0.000000000000  s  px py pz
      0.748611100294      0.666666666667      0.000000000000  s  px py pz
      0.771296317931      0.666666666667      0.000000000000  s  px py pz
      0.793981481481      0.666666666667      0.000000000000  s  px py pz
      0.816666645032      0.666666666667      0.000000000000  s  px py pz
      0.839351862669      0.666666666667      0.000000000000  s  px py pz
      0.862037026220      0.666666666667      0.000000000000  s  px py pz
      0.884722243857      0.666666666667      0.000000000000  s  px py pz
