# Graphene
   1.00000000000000
     59.000000000000      0.000000000000      0.000000000000
      0.000000000000      4.243524478544      0.000000000000
      0.000000000000      0.000000000000     15.000000000000
   C
      80
Direct
      0.000000000000      0.000000000000      0.000000000000  s  px py pz
      0.041525424348      0.000000000000      0.000000000000  s  px py pz
      0.083050848695      0.000000000000      0.000000000000  s  px py pz
      0.124576276137      0.000000000000      0.000000000000  s  px py pz
      0.166101697390      0.000000000000      0.000000000000  s  px py pz
      0.207627118644      0.000000000000      0.000000000000  s  px py pz
      0.249152552273      0.000000000000      0.000000000000  s  px py pz
      0.290677961151      0.000000000000      0.000000000000  s  px py pz
      0.332203394781      0.000000000000      0.000000000000  s  px py pz
      0.373728803659      0.000000000000      0.000000000000  s  px py pz
      0.415254237288      0.000000000000      0.000000000000  s  px py pz
      0.456779670917      0.000000000000      0.000000000000  s  px py pz
      0.498305104547      0.000000000000      0.000000000000  s  px py pz
      0.539830488674      0.000000000000      0.000000000000  s  px py pz
      0.581355922303      0.000000000000      0.000000000000  s  px py pz
      0.622881355932      0.000000000000      0.000000000000  s  px py pz
      0.664406789561      0.000000000000      0.000000000000  s  px py pz
      0.705932223191      0.000000000000      0.000000000000  s  px py pz
      0.747457607318      0.000000000000      0.000000000000  s  px py pz
      0.788983040947      0.000000000000      0.000000000000  s  px py pz
      0.020762711864      0.166666666667      0.000000000000  s  px py pz
      0.062288136212      0.166666666667      0.000000000000  s  px py pz
      0.103813560560      0.166666666667      0.000000000000  s  px py pz
      0.145338988001      0.166666666667      0.000000000000  s  px py pz
      0.186864409255      0.166666666667      0.000000000000  s  px py pz
      0.228389830508      0.166666666667      0.000000000000  s  px py pz
      0.269915264138      0.166666666667      0.000000000000  s  px py pz
      0.311440673016      0.166666666667      0.000000000000  s  px py pz
      0.352966106645      0.166666666667      0.000000000000  s  px py pz
      0.394491515523      0.166666666667      0.000000000000  s  px py pz
      0.436016949153      0.166666666667      0.000000000000  s  px py pz
      0.477542382782      0.166666666667      0.000000000000  s  px py pz
      0.519067816411      0.166666666667      0.000000000000  s  px py pz
      0.560593200538      0.166666666667      0.000000000000  s  px py pz
      0.602118634167      0.166666666667      0.000000000000  s  px py pz
      0.643644067797      0.166666666667      0.000000000000  s  px py pz
      0.685169501426      0.166666666667      0.000000000000  s  px py pz
      0.726694935055      0.166666666667      0.000000000000  s  px py pz
      0.768220319182      0.166666666667      0.000000000000  s  px py pz
      0.809745752811      0.166666666667      0.000000000000  s  px py pz
      0.020762711864      0.500000000000      0.000000000000  s  px py pz
      0.062288136212      0.500000000000      0.000000000000  s  px py pz
      0.103813560560      0.500000000000      0.000000000000  s  px py pz
      0.145338988001      0.500000000000      0.000000000000  s  px py pz
      0.186864409255      0.500000000000      0.000000000000  s  px py pz
      0.228389830508      0.500000000000      0.000000000000  s  px py pz
      0.269915264138      0.500000000000      0.000000000000  s  px py pz
      0.311440673016      0.500000000000      0.000000000000  s  px py pz
      0.352966106645      0.500000000000      0.000000000000  s  px py pz
      0.394491515523      0.500000000000      0.000000000000  s  px py pz
      0.436016949153      0.500000000000      0.000000000000  s  px py pz
      0.477542382782      0.500000000000      0.000000000000  s  px py pz
      0.519067816411      0.500000000000      0.000000000000  s  px py pz
      0.560593200538      0.500000000000      0.000000000000  s  px py pz
      0.602118634167      0.500000000000      0.000000000000  s  px py pz
      0.643644067797      0.500000000000      0.000000000000  s  px py pz
      0.685169501426      0.500000000000      0.000000000000  s  px py pz
      0.726694935055      0.500000000000      0.000000000000  s  px py pz
      0.768220319182      0.500000000000      0.000000000000  s  px py pz
      0.809745752811      0.500000000000      0.000000000000  s  px py pz
      0.000000000000      0.666666666667      0.000000000000  s  px py pz
      0.041525424348      0.666666666667      0.000000000000  s  px py pz
      0.083050848695      0.666666666667      0.000000000000  s  px py pz
      0.124576276137      0.666666666667      0.000000000000  s  px py pz
      0.166101697390      0.666666666667      0.000000000000  s  px py pz
      0.207627118644      0.666666666667      0.000000000000  s  px py pz
      0.249152552273      0.666666666667      0.000000000000  s  px py pz
      0.290677961151      0.666666666667      0.000000000000  s  px py pz
      0.332203394781      0.666666666667      0.000000000000  s  px py pz
      0.373728803659      0.666666666667      0.000000000000  s  px py pz
      0.415254237288      0.666666666667      0.000000000000  s  px py pz
      0.456779670917      0.666666666667      0.000000000000  s  px py pz
      0.498305104547      0.666666666667      0.000000000000  s  px py pz
      0.539830488674      0.666666666667      0.000000000000  s  px py pz
      0.581355922303      0.666666666667      0.000000000000  s  px py pz
      0.622881355932      0.666666666667      0.000000000000  s  px py pz
      0.664406789561      0.666666666667      0.000000000000  s  px py pz
      0.705932223191      0.666666666667      0.000000000000  s  px py pz
      0.747457607318      0.666666666667      0.000000000000  s  px py pz
      0.788983040947      0.666666666667      0.000000000000  s  px py pz
